946560
1,26,63,4,2,84,88,7,52,90,43,54,71,35,49,87,75,37,86,44,3,65,6,72,94,46,56,32,8,19,20,95,29,76,9,55,17,40,68,74,5,62,12,31,59,30,61,48,92,67,98,79,36,47,0,69,73,82,14,85,80,13,38,91,83,21,23,42,51,64,53,97,10,22,27,45,33,70,89,58,18,11,16,25,93,39,28,78,50,24,77,15,57,81,60,66,34,41,96,1